NAME          
ROWS
 N  OBJ
 L  c1
 L  c2
 L  c3
COLUMNS
    MARKER    'MARKER'                 'INTORG'
    x[1]      c1        853
    x[1]      c2        548
    x[1]      c3        73
    x[1]      OBJ       -968
    x[2]      c1        154
    x[2]      c2        83
    x[2]      c3        171
    x[2]      OBJ       -109
    x[3]      c1        567
    x[3]      c2        477
    x[3]      c3        984
    x[3]      OBJ       -541
    x[4]      c1        903
    x[4]      c2        30
    x[4]      c3        454
    x[4]      OBJ       -666
    x[5]      c1        219
    x[5]      c2        816
    x[5]      c3        681
    x[5]      OBJ       -966
    x[6]      c1        801
    x[6]      c2        790
    x[6]      c3        12
    x[6]      OBJ       -655
    x[7]      c1        834
    x[7]      c2        728
    x[7]      c3        687
    x[7]      OBJ       -419
    x[8]      c1        258
    x[8]      c2        501
    x[8]      c3        126
    x[8]      OBJ       -715
    x[9]      c1        429
    x[9]      c2        400
    x[9]      c3        107
    x[9]      OBJ       -542
    x[10]     c1        895
    x[10]     c2        7
    x[10]     c3        206
    x[10]     OBJ       -525
    x[11]     c1        246
    x[11]     c2        145
    x[11]     c3        1000
    x[11]     OBJ       -269
    x[12]     c1        429
    x[12]     c2        377
    x[12]     c3        159
    x[12]     OBJ       -910
    x[13]     c1        728
    x[13]     c2        758
    x[13]     c3        758
    x[13]     OBJ       -144
    x[14]     c1        48
    x[14]     c2        908
    x[14]     c3        109
    x[14]     OBJ       -70
    x[15]     c1        137
    x[15]     c2        646
    x[15]     c3        846
    x[15]     OBJ       -311
    x[16]     c1        687
    x[16]     c2        101
    x[16]     c3        612
    x[16]     OBJ       -752
    x[17]     c1        499
    x[17]     c2        515
    x[17]     c3        180
    x[17]     OBJ       -754
    x[18]     c1        779
    x[18]     c2        639
    x[18]     c3        477
    x[18]     OBJ       -171
    x[19]     c1        142
    x[19]     c2        138
    x[19]     c3        470
    x[19]     OBJ       -103
    x[20]     c1        22
    x[20]     c2        562
    x[20]     c3        92
    x[20]     OBJ       -357
RHS
    rhs       c1        4815
    rhs       c2        4584
    rhs       c3        4102
RANGES
BOUNDS
 LO bounds    x[1]      0
 PL bounds    x[1]
 LO bounds    x[2]      0
 PL bounds    x[2]
 LO bounds    x[3]      0
 PL bounds    x[3]
 LO bounds    x[4]      0
 PL bounds    x[4]
 LO bounds    x[5]      0
 PL bounds    x[5]
 LO bounds    x[6]      0
 PL bounds    x[6]
 LO bounds    x[7]      0
 PL bounds    x[7]
 LO bounds    x[8]      0
 PL bounds    x[8]
 LO bounds    x[9]      0
 PL bounds    x[9]
 LO bounds    x[10]     0
 PL bounds    x[10]
 LO bounds    x[11]     0
 PL bounds    x[11]
 LO bounds    x[12]     0
 PL bounds    x[12]
 LO bounds    x[13]     0
 PL bounds    x[13]
 LO bounds    x[14]     0
 PL bounds    x[14]
 LO bounds    x[15]     0
 PL bounds    x[15]
 LO bounds    x[16]     0
 PL bounds    x[16]
 LO bounds    x[17]     0
 PL bounds    x[17]
 LO bounds    x[18]     0
 PL bounds    x[18]
 LO bounds    x[19]     0
 PL bounds    x[19]
 LO bounds    x[20]     0
 PL bounds    x[20]
ENDATA
